TYPE : Vertex Cover
DIMENSION: 29
EDGE_DATA_SECTION:
0 2
0 7
0 9
0 12
0 13
0 14
0 18
0 19
0 22
0 26
1 6
2 6
2 7
2 9
2 14
2 18
2 24
3 14
3 19
3 27
4 13
4 17
4 20
4 21
4 28
5 9
5 11
5 16
5 17
5 22
5 23
5 27
6 12
6 15
6 21
6 22
6 28
7 20
7 21
7 26
8 14
8 19
8 26
9 10
9 19
9 20
9 23
9 26
10 11
10 13
10 17
10 25
11 12
11 19
11 25
11 28
12 19
12 22
12 26
12 27
13 18
14 17
15 17
15 18
15 21
15 23
15 28
16 22
16 26
16 27
17 18
17 21
17 24
18 19
19 21
19 23
19 26
20 21
20 28
21 23
21 24
22 27
22 28
23 26
24 26
24 27
24 28
25 26
25 27
25 28
-1
VERTEX_DEGREE:
10.0 1.0 7.0 3.0 5.0 7.0 7.0 5.0 3.0 8.0 5.0 6.0 7.0 4.0 5.0 6.0 4.0 8.0 6.0 10.0 5.0 9.0 7.0 6.0 6.0 5.0 10.0 7.0 8.0
VERTEX_COVER:
0 2 4 5 6 10 11 14 17 18 19 20 21 22 23 26 27 28
EOF
